100
32
1
9
29
14
13
22
5
9
21
14
9
8
21
16
11
8
13
4
18
1
1
1
1
1
19
1
3
4
1
1
18
3
1
16
1
1
7
1
2
1
1
17
2
2
9
3
3
1
18
2
1
1
1
2
2
1
1
2
1
4
3
1
1
20
1
1
2
1
1
9
2
1
24
1
1
1
1
5
18
2
3
2
17
1
1
10
2
2
1
1
1
1
2
9
17
1
1
1
1
1